p cnf 49 272
1 2 3 4 5 6 7 8 15 22 29 36 43 0
2 1 3 4 5 6 7 0
3 2 1 4 5 6 7 10 17 24 31 38 45 0
4 3 2 1 5 6 7 11 18 25 0
5 4 3 2 1 6 7 12 0
6 5 4 3 2 1 7 13 20 27 34 41 48 0
7 6 5 4 3 2 1 14 21 28 35 42 49 0
8 15 22 29 36 43 1 0
10 11 12 13 14 17 24 31 38 45 3 0
11 10 12 13 14 18 25 4 0
12 11 10 13 14 5 0
13 12 11 10 14 20 27 34 41 48 6 0
14 13 12 11 10 21 28 35 42 49 7 0
15 16 17 18 22 29 36 43 8 1 0
16 15 17 18 23 30 37 44 0
17 16 15 18 24 31 38 45 10 3 0
18 17 16 15 25 11 4 0
20 21 27 34 41 48 13 6 0
21 20 28 35 42 49 14 7 0
22 23 24 25 26 27 28 29 36 43 15 8 1 0
23 22 24 25 26 27 28 30 37 44 16 0
24 23 22 25 26 27 28 31 38 45 17 10 3 0
25 24 23 22 26 27 28 18 11 4 0
26 25 24 23 22 27 28 33 40 47 0
27 26 25 24 23 22 28 34 41 48 20 13 6 0
28 27 26 25 24 23 22 35 42 49 21 14 7 0
29 30 31 36 43 22 15 8 1 0
30 29 31 37 44 23 16 0
31 30 29 38 45 24 17 10 3 0
33 34 35 40 47 26 0
34 33 35 41 48 27 20 13 6 0
35 34 33 42 49 28 21 14 7 0
36 37 38 39 40 41 42 43 29 22 15 8 1 0
37 36 38 39 40 41 42 44 30 23 16 0
38 37 36 39 40 41 42 45 31 24 17 10 3 0
39 38 37 36 40 41 42 46 0
40 39 38 37 36 41 42 47 33 26 0
41 40 39 38 37 36 42 48 34 27 20 13 6 0
42 41 40 39 38 37 36 49 35 28 21 14 7 0
43 44 45 46 47 48 49 36 29 22 15 8 1 0
44 43 45 46 47 48 49 37 30 23 16 0
45 44 43 46 47 48 49 38 31 24 17 10 3 0
46 45 44 43 47 48 49 39 0
47 46 45 44 43 48 49 40 33 26 0
48 47 46 45 44 43 49 41 34 27 20 13 6 0
49 48 47 46 45 44 43 42 35 28 21 14 7 0
-1 -2 0
-1 -3 0
-1 -4 0
-1 -5 0
-1 -6 0
-1 -7 0
-1 -8 0
-1 -15 0
-1 -22 0
-1 -29 0
-1 -36 0
-1 -43 0
-2 -3 0
-2 -4 0
-2 -5 0
-2 -6 0
-2 -7 0
-3 -4 0
-3 -5 0
-3 -6 0
-3 -7 0
-3 -10 0
-3 -17 0
-3 -24 0
-3 -31 0
-3 -38 0
-3 -45 0
-4 -5 0
-4 -6 0
-4 -7 0
-4 -11 0
-4 -18 0
-4 -25 0
-5 -6 0
-5 -7 0
-5 -12 0
-6 -7 0
-6 -13 0
-6 -20 0
-6 -27 0
-6 -34 0
-6 -41 0
-6 -48 0
-7 -14 0
-7 -21 0
-7 -28 0
-7 -35 0
-7 -42 0
-7 -49 0
-8 -15 0
-8 -22 0
-8 -29 0
-8 -36 0
-8 -43 0
-10 -11 0
-10 -12 0
-10 -13 0
-10 -14 0
-10 -17 0
-10 -24 0
-10 -31 0
-10 -38 0
-10 -45 0
-11 -12 0
-11 -13 0
-11 -14 0
-11 -18 0
-11 -25 0
-12 -13 0
-12 -14 0
-13 -14 0
-13 -20 0
-13 -27 0
-13 -34 0
-13 -41 0
-13 -48 0
-14 -21 0
-14 -28 0
-14 -35 0
-14 -42 0
-14 -49 0
-15 -16 0
-15 -17 0
-15 -18 0
-15 -22 0
-15 -29 0
-15 -36 0
-15 -43 0
-16 -17 0
-16 -18 0
-16 -23 0
-16 -30 0
-16 -37 0
-16 -44 0
-17 -18 0
-17 -24 0
-17 -31 0
-17 -38 0
-17 -45 0
-18 -25 0
-20 -21 0
-20 -27 0
-20 -34 0
-20 -41 0
-20 -48 0
-21 -28 0
-21 -35 0
-21 -42 0
-21 -49 0
-22 -23 0
-22 -24 0
-22 -25 0
-22 -26 0
-22 -27 0
-22 -28 0
-22 -29 0
-22 -36 0
-22 -43 0
-23 -24 0
-23 -25 0
-23 -26 0
-23 -27 0
-23 -28 0
-23 -30 0
-23 -37 0
-23 -44 0
-24 -25 0
-24 -26 0
-24 -27 0
-24 -28 0
-24 -31 0
-24 -38 0
-24 -45 0
-25 -26 0
-25 -27 0
-25 -28 0
-26 -27 0
-26 -28 0
-26 -33 0
-26 -40 0
-26 -47 0
-27 -28 0
-27 -34 0
-27 -41 0
-27 -48 0
-28 -35 0
-28 -42 0
-28 -49 0
-29 -30 0
-29 -31 0
-29 -36 0
-29 -43 0
-30 -31 0
-30 -37 0
-30 -44 0
-31 -38 0
-31 -45 0
-33 -34 0
-33 -35 0
-33 -40 0
-33 -47 0
-34 -35 0
-34 -41 0
-34 -48 0
-35 -42 0
-35 -49 0
-36 -37 0
-36 -38 0
-36 -39 0
-36 -40 0
-36 -41 0
-36 -42 0
-36 -43 0
-37 -38 0
-37 -39 0
-37 -40 0
-37 -41 0
-37 -42 0
-37 -44 0
-38 -39 0
-38 -40 0
-38 -41 0
-38 -42 0
-38 -45 0
-39 -40 0
-39 -41 0
-39 -42 0
-39 -46 0
-40 -41 0
-40 -42 0
-40 -47 0
-41 -42 0
-41 -48 0
-42 -49 0
-43 -44 0
-43 -45 0
-43 -46 0
-43 -47 0
-43 -48 0
-43 -49 0
-44 -45 0
-44 -46 0
-44 -47 0
-44 -48 0
-44 -49 0
-45 -46 0
-45 -47 0
-45 -48 0
-45 -49 0
-46 -47 0
-46 -48 0
-46 -49 0
-47 -48 0
-47 -49 0
-48 -49 0
-25 -39 -31 0
25 39 31 0
-25 -39 -33 0
25 39 33 0
-25 -31 -33 0
25 31 33 0
-39 -31 -33 0
39 31 33 0
-9 0
-19 0
-32 0